

(declare-sort |c499_s| 0)
(declare-fun |c499_is| (|c499_s|) Bool)
(declare-fun |c499#0| (|c499_s|) Bool) 


(define-fun |c499_n CK| ((state |c499_s|)) Bool (|c499#0| state))
(declare-fun |c499#1| (|c499_s|) Bool) 


(define-fun |c499_n N1| ((state |c499_s|)) Bool (|c499#1| state))
(declare-fun |c499#2| (|c499_s|) Bool) 


(define-fun |c499_n N101| ((state |c499_s|)) Bool (|c499#2| state))
(declare-fun |c499#3| (|c499_s|) Bool) 


(define-fun |c499_n N105| ((state |c499_s|)) Bool (|c499#3| state))
(declare-fun |c499#4| (|c499_s|) Bool) 


(define-fun |c499_n N109| ((state |c499_s|)) Bool (|c499#4| state))
(declare-fun |c499#5| (|c499_s|) Bool) 


(define-fun |c499_n N113| ((state |c499_s|)) Bool (|c499#5| state))
(declare-fun |c499#6| (|c499_s|) Bool) 


(define-fun |c499_n N117| ((state |c499_s|)) Bool (|c499#6| state))
(declare-fun |c499#7| (|c499_s|) Bool) 


(define-fun |c499_n N121| ((state |c499_s|)) Bool (|c499#7| state))
(declare-fun |c499#8| (|c499_s|) Bool) 


(define-fun |c499_n N125| ((state |c499_s|)) Bool (|c499#8| state))
(declare-fun |c499#9| (|c499_s|) Bool) 


(define-fun |c499_n N129| ((state |c499_s|)) Bool (|c499#9| state))
(declare-fun |c499#10| (|c499_s|) Bool) 


(define-fun |c499_n N13| ((state |c499_s|)) Bool (|c499#10| state))
(declare-fun |c499#11| (|c499_s|) Bool) 


(define-fun |c499_n N130| ((state |c499_s|)) Bool (|c499#11| state))
(declare-fun |c499#12| (|c499_s|) Bool) 


(define-fun |c499_n N131| ((state |c499_s|)) Bool (|c499#12| state))
(declare-fun |c499#13| (|c499_s|) Bool) 


(define-fun |c499_n N132| ((state |c499_s|)) Bool (|c499#13| state))
(declare-fun |c499#14| (|c499_s|) Bool) 


(define-fun |c499_n N133| ((state |c499_s|)) Bool (|c499#14| state))
(declare-fun |c499#15| (|c499_s|) Bool) 


(define-fun |c499_n N134| ((state |c499_s|)) Bool (|c499#15| state))
(declare-fun |c499#16| (|c499_s|) Bool) 


(define-fun |c499_n N135| ((state |c499_s|)) Bool (|c499#16| state))
(declare-fun |c499#17| (|c499_s|) Bool) 


(define-fun |c499_n N136| ((state |c499_s|)) Bool (|c499#17| state))
(declare-fun |c499#18| (|c499_s|) Bool) 


(define-fun |c499_n N137| ((state |c499_s|)) Bool (|c499#18| state))
(declare-fun |c499#19| (|c499_s|) Bool) 


(define-fun |c499_n N17| ((state |c499_s|)) Bool (|c499#19| state))
(declare-fun |c499#20| (|c499_s|) Bool) 


(define-fun |c499_n N21| ((state |c499_s|)) Bool (|c499#20| state))
(declare-fun |c499#21| (|c499_s|) Bool) 


(define-fun |c499_n N25| ((state |c499_s|)) Bool (|c499#21| state))
(declare-fun |c499#22| (|c499_s|) Bool) 


(define-fun |c499_n N29| ((state |c499_s|)) Bool (|c499#22| state))
(declare-fun |c499#23| (|c499_s|) Bool) 


(define-fun |c499_n N33| ((state |c499_s|)) Bool (|c499#23| state))
(declare-fun |c499#24| (|c499_s|) Bool) 


(define-fun |c499_n N37| ((state |c499_s|)) Bool (|c499#24| state))
(declare-fun |c499#25| (|c499_s|) Bool) 


(define-fun |c499_n N41| ((state |c499_s|)) Bool (|c499#25| state))
(declare-fun |c499#26| (|c499_s|) Bool) 


(define-fun |c499_n N45| ((state |c499_s|)) Bool (|c499#26| state))
(declare-fun |c499#27| (|c499_s|) Bool) 


(define-fun |c499_n N49| ((state |c499_s|)) Bool (|c499#27| state))
(declare-fun |c499#28| (|c499_s|) Bool) 


(define-fun |c499_n N5| ((state |c499_s|)) Bool (|c499#28| state))
(declare-fun |c499#29| (|c499_s|) Bool) 


(define-fun |c499_n N53| ((state |c499_s|)) Bool (|c499#29| state))
(declare-fun |c499#30| (|c499_s|) Bool) 


(define-fun |c499_n N57| ((state |c499_s|)) Bool (|c499#30| state))
(declare-fun |c499#31| (|c499_s|) Bool) 


(define-fun |c499_n N61| ((state |c499_s|)) Bool (|c499#31| state))
(declare-fun |c499#32| (|c499_s|) Bool) 


(define-fun |c499_n N65| ((state |c499_s|)) Bool (|c499#32| state))
(declare-fun |c499#33| (|c499_s|) Bool) 


(define-fun |c499_n N69| ((state |c499_s|)) Bool (|c499#33| state))
(define-fun |c499#34| ((state |c499_s|)) (_ BitVec 1) (bvxor (ite (|c499#1| state) #b1 #b0) (ite (|c499#19| state) #b1 #b0))) 
(define-fun |c499#35| ((state |c499_s|)) (_ BitVec 1) (bvxor (ite (|c499#23| state) #b1 #b0) (ite (|c499#27| state) #b1 #b0))) 
(define-fun |c499#36| ((state |c499_s|)) (_ BitVec 1) (bvxor (|c499#34| state) (|c499#35| state))) 
(define-fun |c499#37| ((state |c499_s|)) (_ BitVec 1) (bvand (ite (|c499#9| state) #b1 #b0) (ite (|c499#18| state) #b1 #b0))) 
(define-fun |c499#38| ((state |c499_s|)) (_ BitVec 1) (bvxor (ite (|c499#32| state) #b1 #b0) (ite (|c499#33| state) #b1 #b0))) 
(declare-fun |c499#39| (|c499_s|) (_ BitVec 1)) 
(declare-fun |c499#40| (|c499_s|) (_ BitVec 1)) 
(define-fun |c499#41| ((state |c499_s|)) (_ BitVec 1) (bvxor (|c499#39| state) (|c499#40| state))) 
(define-fun |c499#42| ((state |c499_s|)) (_ BitVec 1) (bvxor (|c499#38| state) (|c499#41| state))) 
(declare-fun |c499#43| (|c499_s|) (_ BitVec 1)) 
(declare-fun |c499#44| (|c499_s|) (_ BitVec 1)) 
(define-fun |c499#45| ((state |c499_s|)) (_ BitVec 1) (bvxor (|c499#43| state) (|c499#44| state))) 
(declare-fun |c499#46| (|c499_s|) (_ BitVec 1)) 
(declare-fun |c499#47| (|c499_s|) (_ BitVec 1)) 
(define-fun |c499#48| ((state |c499_s|)) (_ BitVec 1) (bvxor (|c499#46| state) (|c499#47| state))) 
(define-fun |c499#49| ((state |c499_s|)) (_ BitVec 1) (bvxor (|c499#45| state) (|c499#48| state))) 
(define-fun |c499#50| ((state |c499_s|)) (_ BitVec 1) (bvxor (|c499#42| state) (|c499#49| state))) 
(define-fun |c499#51| ((state |c499_s|)) (_ BitVec 1) (bvxor (|c499#37| state) (|c499#50| state))) 
(define-fun |c499#52| ((state |c499_s|)) (_ BitVec 1) (bvxor (|c499#36| state) (|c499#51| state))) 
(define-fun |c499#53| ((state |c499_s|)) (_ BitVec 1) (bvxor (ite (|c499#32| state) #b1 #b0) (|c499#43| state))) 
(declare-fun |c499#54| (|c499_s|) (_ BitVec 1)) 
(define-fun |c499#55| ((state |c499_s|)) (_ BitVec 1) (bvxor (|c499#54| state) (ite (|c499#5| state) #b1 #b0))) 
(define-fun |c499#56| ((state |c499_s|)) (_ BitVec 1) (bvxor (|c499#53| state) (|c499#55| state))) 
(define-fun |c499#57| ((state |c499_s|)) (_ BitVec 1) (bvand (ite (|c499#14| state) #b1 #b0) (ite (|c499#18| state) #b1 #b0))) 
(define-fun |c499#58| ((state |c499_s|)) (_ BitVec 1) (bvxor (ite (|c499#1| state) #b1 #b0) (ite (|c499#28| state) #b1 #b0))) 
(declare-fun |c499#59| (|c499_s|) (_ BitVec 1)) 
(define-fun |c499#60| ((state |c499_s|)) (_ BitVec 1) (bvxor (|c499#59| state) (ite (|c499#10| state) #b1 #b0))) 
(define-fun |c499#61| ((state |c499_s|)) (_ BitVec 1) (bvxor (|c499#58| state) (|c499#60| state))) 
(define-fun |c499#62| ((state |c499_s|)) (_ BitVec 1) (bvxor (ite (|c499#19| state) #b1 #b0) (ite (|c499#20| state) #b1 #b0))) 
(define-fun |c499#63| ((state |c499_s|)) (_ BitVec 1) (bvxor (ite (|c499#21| state) #b1 #b0) (ite (|c499#22| state) #b1 #b0))) 
(define-fun |c499#64| ((state |c499_s|)) (_ BitVec 1) (bvxor (|c499#62| state) (|c499#63| state))) 
(define-fun |c499#65| ((state |c499_s|)) (_ BitVec 1) (bvxor (|c499#61| state) (|c499#64| state))) 
(define-fun |c499#66| ((state |c499_s|)) (_ BitVec 1) (bvxor (|c499#57| state) (|c499#65| state))) 
(define-fun |c499#67| ((state |c499_s|)) (_ BitVec 1) (bvxor (|c499#56| state) (|c499#66| state))) 
(define-fun |c499#68| ((state |c499_s|)) (_ BitVec 1) (bvxor (ite (|c499#33| state) #b1 #b0) (|c499#44| state))) 
(define-fun |c499#69| ((state |c499_s|)) (_ BitVec 1) (bvxor (ite (|c499#2| state) #b1 #b0) (ite (|c499#6| state) #b1 #b0))) 
(define-fun |c499#70| ((state |c499_s|)) (_ BitVec 1) (bvxor (|c499#68| state) (|c499#69| state))) 
(define-fun |c499#71| ((state |c499_s|)) (_ BitVec 1) (bvand (ite (|c499#15| state) #b1 #b0) (ite (|c499#18| state) #b1 #b0))) 
(define-fun |c499#72| ((state |c499_s|)) (_ BitVec 1) (bvxor (ite (|c499#23| state) #b1 #b0) (ite (|c499#24| state) #b1 #b0))) 
(define-fun |c499#73| ((state |c499_s|)) (_ BitVec 1) (bvxor (ite (|c499#25| state) #b1 #b0) (ite (|c499#26| state) #b1 #b0))) 
(define-fun |c499#74| ((state |c499_s|)) (_ BitVec 1) (bvxor (|c499#72| state) (|c499#73| state))) 
(define-fun |c499#75| ((state |c499_s|)) (_ BitVec 1) (bvxor (ite (|c499#27| state) #b1 #b0) (ite (|c499#29| state) #b1 #b0))) 
(define-fun |c499#76| ((state |c499_s|)) (_ BitVec 1) (bvxor (ite (|c499#30| state) #b1 #b0) (ite (|c499#31| state) #b1 #b0))) 
(define-fun |c499#77| ((state |c499_s|)) (_ BitVec 1) (bvxor (|c499#75| state) (|c499#76| state))) 
(define-fun |c499#78| ((state |c499_s|)) (_ BitVec 1) (bvxor (|c499#74| state) (|c499#77| state))) 
(define-fun |c499#79| ((state |c499_s|)) (_ BitVec 1) (bvxor (|c499#71| state) (|c499#78| state))) 
(define-fun |c499#80| ((state |c499_s|)) (_ BitVec 1) (bvxor (|c499#70| state) (|c499#79| state))) 
(define-fun |c499#81| ((state |c499_s|)) (_ BitVec 1) (bvnot (|c499#80| state))) 
(define-fun |c499#82| ((state |c499_s|)) (_ BitVec 1) (bvand (|c499#67| state) (|c499#81| state))) 
(define-fun |c499#83| ((state |c499_s|)) (_ BitVec 1) (bvxor (|c499#39| state) (|c499#46| state))) 
(define-fun |c499#84| ((state |c499_s|)) (_ BitVec 1) (bvxor (ite (|c499#3| state) #b1 #b0) (ite (|c499#7| state) #b1 #b0))) 
(define-fun |c499#85| ((state |c499_s|)) (_ BitVec 1) (bvxor (|c499#83| state) (|c499#84| state))) 
(define-fun |c499#86| ((state |c499_s|)) (_ BitVec 1) (bvand (ite (|c499#16| state) #b1 #b0) (ite (|c499#18| state) #b1 #b0))) 
(define-fun |c499#87| ((state |c499_s|)) (_ BitVec 1) (bvxor (|c499#61| state) (|c499#74| state))) 
(define-fun |c499#88| ((state |c499_s|)) (_ BitVec 1) (bvxor (|c499#86| state) (|c499#87| state))) 
(define-fun |c499#89| ((state |c499_s|)) (_ BitVec 1) (bvxor (|c499#85| state) (|c499#88| state))) 
(define-fun |c499#90| ((state |c499_s|)) (_ BitVec 1) (bvand (|c499#82| state) (|c499#89| state))) 
(define-fun |c499#91| ((state |c499_s|)) (_ BitVec 1) (bvxor (|c499#40| state) (|c499#47| state))) 
(define-fun |c499#92| ((state |c499_s|)) (_ BitVec 1) (bvxor (ite (|c499#4| state) #b1 #b0) (ite (|c499#8| state) #b1 #b0))) 
(define-fun |c499#93| ((state |c499_s|)) (_ BitVec 1) (bvxor (|c499#91| state) (|c499#92| state))) 
(define-fun |c499#94| ((state |c499_s|)) (_ BitVec 1) (bvand (ite (|c499#17| state) #b1 #b0) (ite (|c499#18| state) #b1 #b0))) 
(define-fun |c499#95| ((state |c499_s|)) (_ BitVec 1) (bvxor (|c499#64| state) (|c499#77| state))) 
(define-fun |c499#96| ((state |c499_s|)) (_ BitVec 1) (bvxor (|c499#94| state) (|c499#95| state))) 
(define-fun |c499#97| ((state |c499_s|)) (_ BitVec 1) (bvxor (|c499#93| state) (|c499#96| state))) 
(define-fun |c499#98| ((state |c499_s|)) (_ BitVec 1) (bvnot (|c499#97| state))) 
(define-fun |c499#99| ((state |c499_s|)) (_ BitVec 1) (bvand (|c499#90| state) (|c499#98| state))) 
(define-fun |c499#100| ((state |c499_s|)) (_ BitVec 1) (bvnot (|c499#52| state))) 
(define-fun |c499#101| ((state |c499_s|)) (_ BitVec 1) (bvxor (ite (|c499#28| state) #b1 #b0) (ite (|c499#20| state) #b1 #b0))) 
(define-fun |c499#102| ((state |c499_s|)) (_ BitVec 1) (bvxor (ite (|c499#24| state) #b1 #b0) (ite (|c499#29| state) #b1 #b0))) 
(define-fun |c499#103| ((state |c499_s|)) (_ BitVec 1) (bvxor (|c499#101| state) (|c499#102| state))) 
(define-fun |c499#104| ((state |c499_s|)) (_ BitVec 1) (bvand (ite (|c499#11| state) #b1 #b0) (ite (|c499#18| state) #b1 #b0))) 
(define-fun |c499#105| ((state |c499_s|)) (_ BitVec 1) (bvxor (|c499#54| state) (ite (|c499#2| state) #b1 #b0))) 
(define-fun |c499#106| ((state |c499_s|)) (_ BitVec 1) (bvxor (ite (|c499#3| state) #b1 #b0) (ite (|c499#4| state) #b1 #b0))) 
(define-fun |c499#107| ((state |c499_s|)) (_ BitVec 1) (bvxor (|c499#105| state) (|c499#106| state))) 
(define-fun |c499#108| ((state |c499_s|)) (_ BitVec 1) (bvxor (ite (|c499#5| state) #b1 #b0) (ite (|c499#6| state) #b1 #b0))) 
(define-fun |c499#109| ((state |c499_s|)) (_ BitVec 1) (bvxor (ite (|c499#7| state) #b1 #b0) (ite (|c499#8| state) #b1 #b0))) 
(define-fun |c499#110| ((state |c499_s|)) (_ BitVec 1) (bvxor (|c499#108| state) (|c499#109| state))) 
(define-fun |c499#111| ((state |c499_s|)) (_ BitVec 1) (bvxor (|c499#107| state) (|c499#110| state))) 
(define-fun |c499#112| ((state |c499_s|)) (_ BitVec 1) (bvxor (|c499#104| state) (|c499#111| state))) 
(define-fun |c499#113| ((state |c499_s|)) (_ BitVec 1) (bvxor (|c499#103| state) (|c499#112| state))) 
(define-fun |c499#114| ((state |c499_s|)) (_ BitVec 1) (bvnot (|c499#113| state))) 
(define-fun |c499#115| ((state |c499_s|)) (_ BitVec 1) (bvand (|c499#100| state) (|c499#114| state))) 
(define-fun |c499#116| ((state |c499_s|)) (_ BitVec 1) (bvxor (|c499#59| state) (ite (|c499#21| state) #b1 #b0))) 
(define-fun |c499#117| ((state |c499_s|)) (_ BitVec 1) (bvxor (ite (|c499#25| state) #b1 #b0) (ite (|c499#30| state) #b1 #b0))) 
(define-fun |c499#118| ((state |c499_s|)) (_ BitVec 1) (bvxor (|c499#116| state) (|c499#117| state))) 
(define-fun |c499#119| ((state |c499_s|)) (_ BitVec 1) (bvand (ite (|c499#12| state) #b1 #b0) (ite (|c499#18| state) #b1 #b0))) 
(define-fun |c499#120| ((state |c499_s|)) (_ BitVec 1) (bvxor (|c499#42| state) (|c499#107| state))) 
(define-fun |c499#121| ((state |c499_s|)) (_ BitVec 1) (bvxor (|c499#119| state) (|c499#120| state))) 
(define-fun |c499#122| ((state |c499_s|)) (_ BitVec 1) (bvxor (|c499#118| state) (|c499#121| state))) 
(define-fun |c499#123| ((state |c499_s|)) (_ BitVec 1) (bvnot (|c499#122| state))) 
(define-fun |c499#124| ((state |c499_s|)) (_ BitVec 1) (bvand (|c499#115| state) (|c499#123| state))) 
(define-fun |c499#125| ((state |c499_s|)) (_ BitVec 1) (bvxor (ite (|c499#10| state) #b1 #b0) (ite (|c499#22| state) #b1 #b0))) 
(define-fun |c499#126| ((state |c499_s|)) (_ BitVec 1) (bvxor (ite (|c499#26| state) #b1 #b0) (ite (|c499#31| state) #b1 #b0))) 
(define-fun |c499#127| ((state |c499_s|)) (_ BitVec 1) (bvxor (|c499#125| state) (|c499#126| state))) 
(define-fun |c499#128| ((state |c499_s|)) (_ BitVec 1) (bvand (ite (|c499#13| state) #b1 #b0) (ite (|c499#18| state) #b1 #b0))) 
(define-fun |c499#129| ((state |c499_s|)) (_ BitVec 1) (bvxor (|c499#49| state) (|c499#110| state))) 
(define-fun |c499#130| ((state |c499_s|)) (_ BitVec 1) (bvxor (|c499#128| state) (|c499#129| state))) 
(define-fun |c499#131| ((state |c499_s|)) (_ BitVec 1) (bvxor (|c499#127| state) (|c499#130| state))) 
(define-fun |c499#132| ((state |c499_s|)) (_ BitVec 1) (bvand (|c499#124| state) (|c499#131| state))) 
(define-fun |c499#133| ((state |c499_s|)) (_ BitVec 1) (bvand (|c499#115| state) (|c499#122| state))) 
(define-fun |c499#134| ((state |c499_s|)) (_ BitVec 1) (bvnot (|c499#131| state))) 
(define-fun |c499#135| ((state |c499_s|)) (_ BitVec 1) (bvand (|c499#133| state) (|c499#134| state))) 
(define-fun |c499#136| ((state |c499_s|)) (_ BitVec 1) (bvor (|c499#132| state) (|c499#135| state))) 
(define-fun |c499#137| ((state |c499_s|)) (_ BitVec 1) (bvand (|c499#100| state) (|c499#113| state))) 
(define-fun |c499#138| ((state |c499_s|)) (_ BitVec 1) (bvand (|c499#137| state) (|c499#123| state))) 
(define-fun |c499#139| ((state |c499_s|)) (_ BitVec 1) (bvand (|c499#138| state) (|c499#134| state))) 
(define-fun |c499#140| ((state |c499_s|)) (_ BitVec 1) (bvor (|c499#136| state) (|c499#139| state))) 
(define-fun |c499#141| ((state |c499_s|)) (_ BitVec 1) (bvand (|c499#52| state) (|c499#114| state))) 
(define-fun |c499#142| ((state |c499_s|)) (_ BitVec 1) (bvand (|c499#141| state) (|c499#123| state))) 
(define-fun |c499#143| ((state |c499_s|)) (_ BitVec 1) (bvand (|c499#142| state) (|c499#134| state))) 
(define-fun |c499#144| ((state |c499_s|)) (_ BitVec 1) (bvor (|c499#140| state) (|c499#143| state))) 
(define-fun |c499#145| ((state |c499_s|)) (_ BitVec 1) (bvand (|c499#99| state) (|c499#144| state))) 
(define-fun |c499#146| ((state |c499_s|)) (_ BitVec 1) (bvand (|c499#52| state) (|c499#145| state))) 
(define-fun |c499#147| ((state |c499_s|)) (_ BitVec 1) (bvxor (ite (|c499#1| state) #b1 #b0) (|c499#146| state))) 

(define-fun |c499_n N724| ((state |c499_s|)) Bool (= ((_ extract 0 0) (|c499#147| state)) #b1))
(define-fun |c499#148| ((state |c499_s|)) (_ BitVec 1) (bvand (|c499#113| state) (|c499#145| state))) 
(define-fun |c499#149| ((state |c499_s|)) (_ BitVec 1) (bvxor (ite (|c499#28| state) #b1 #b0) (|c499#148| state))) 

(define-fun |c499_n N725| ((state |c499_s|)) Bool (= ((_ extract 0 0) (|c499#149| state)) #b1))
(define-fun |c499#150| ((state |c499_s|)) (_ BitVec 1) (bvand (|c499#122| state) (|c499#145| state))) 
(define-fun |c499#151| ((state |c499_s|)) (_ BitVec 1) (bvxor (|c499#59| state) (|c499#150| state))) 

(define-fun |c499_n N726| ((state |c499_s|)) Bool (= ((_ extract 0 0) (|c499#151| state)) #b1))
(define-fun |c499#152| ((state |c499_s|)) (_ BitVec 1) (bvand (|c499#131| state) (|c499#145| state))) 
(define-fun |c499#153| ((state |c499_s|)) (_ BitVec 1) (bvxor (ite (|c499#10| state) #b1 #b0) (|c499#152| state))) 

(define-fun |c499_n N727| ((state |c499_s|)) Bool (= ((_ extract 0 0) (|c499#153| state)) #b1))
(define-fun |c499#154| ((state |c499_s|)) (_ BitVec 1) (bvnot (|c499#89| state))) 
(define-fun |c499#155| ((state |c499_s|)) (_ BitVec 1) (bvand (|c499#82| state) (|c499#154| state))) 
(define-fun |c499#156| ((state |c499_s|)) (_ BitVec 1) (bvand (|c499#155| state) (|c499#97| state))) 
(define-fun |c499#157| ((state |c499_s|)) (_ BitVec 1) (bvand (|c499#156| state) (|c499#144| state))) 
(define-fun |c499#158| ((state |c499_s|)) (_ BitVec 1) (bvand (|c499#52| state) (|c499#157| state))) 
(define-fun |c499#159| ((state |c499_s|)) (_ BitVec 1) (bvxor (ite (|c499#19| state) #b1 #b0) (|c499#158| state))) 

(define-fun |c499_n N728| ((state |c499_s|)) Bool (= ((_ extract 0 0) (|c499#159| state)) #b1))
(define-fun |c499#160| ((state |c499_s|)) (_ BitVec 1) (bvand (|c499#113| state) (|c499#157| state))) 
(define-fun |c499#161| ((state |c499_s|)) (_ BitVec 1) (bvxor (ite (|c499#20| state) #b1 #b0) (|c499#160| state))) 

(define-fun |c499_n N729| ((state |c499_s|)) Bool (= ((_ extract 0 0) (|c499#161| state)) #b1))


(define-fun |c499_n N73| ((state |c499_s|)) Bool (= ((_ extract 0 0) (|c499#39| state)) #b1))
(define-fun |c499#162| ((state |c499_s|)) (_ BitVec 1) (bvand (|c499#122| state) (|c499#157| state))) 
(define-fun |c499#163| ((state |c499_s|)) (_ BitVec 1) (bvxor (ite (|c499#21| state) #b1 #b0) (|c499#162| state))) 

(define-fun |c499_n N730| ((state |c499_s|)) Bool (= ((_ extract 0 0) (|c499#163| state)) #b1))
(define-fun |c499#164| ((state |c499_s|)) (_ BitVec 1) (bvand (|c499#131| state) (|c499#157| state))) 
(define-fun |c499#165| ((state |c499_s|)) (_ BitVec 1) (bvxor (ite (|c499#22| state) #b1 #b0) (|c499#164| state))) 

(define-fun |c499_n N731| ((state |c499_s|)) Bool (= ((_ extract 0 0) (|c499#165| state)) #b1))
(define-fun |c499#166| ((state |c499_s|)) (_ BitVec 1) (bvnot (|c499#67| state))) 
(define-fun |c499#167| ((state |c499_s|)) (_ BitVec 1) (bvand (|c499#166| state) (|c499#80| state))) 
(define-fun |c499#168| ((state |c499_s|)) (_ BitVec 1) (bvand (|c499#167| state) (|c499#89| state))) 
(define-fun |c499#169| ((state |c499_s|)) (_ BitVec 1) (bvand (|c499#168| state) (|c499#98| state))) 
(define-fun |c499#170| ((state |c499_s|)) (_ BitVec 1) (bvand (|c499#169| state) (|c499#144| state))) 
(define-fun |c499#171| ((state |c499_s|)) (_ BitVec 1) (bvand (|c499#52| state) (|c499#170| state))) 
(define-fun |c499#172| ((state |c499_s|)) (_ BitVec 1) (bvxor (ite (|c499#23| state) #b1 #b0) (|c499#171| state))) 

(define-fun |c499_n N732| ((state |c499_s|)) Bool (= ((_ extract 0 0) (|c499#172| state)) #b1))
(define-fun |c499#173| ((state |c499_s|)) (_ BitVec 1) (bvand (|c499#113| state) (|c499#170| state))) 
(define-fun |c499#174| ((state |c499_s|)) (_ BitVec 1) (bvxor (ite (|c499#24| state) #b1 #b0) (|c499#173| state))) 

(define-fun |c499_n N733| ((state |c499_s|)) Bool (= ((_ extract 0 0) (|c499#174| state)) #b1))
(define-fun |c499#175| ((state |c499_s|)) (_ BitVec 1) (bvand (|c499#122| state) (|c499#170| state))) 
(define-fun |c499#176| ((state |c499_s|)) (_ BitVec 1) (bvxor (ite (|c499#25| state) #b1 #b0) (|c499#175| state))) 

(define-fun |c499_n N734| ((state |c499_s|)) Bool (= ((_ extract 0 0) (|c499#176| state)) #b1))
(define-fun |c499#177| ((state |c499_s|)) (_ BitVec 1) (bvand (|c499#131| state) (|c499#170| state))) 
(define-fun |c499#178| ((state |c499_s|)) (_ BitVec 1) (bvxor (ite (|c499#26| state) #b1 #b0) (|c499#177| state))) 

(define-fun |c499_n N735| ((state |c499_s|)) Bool (= ((_ extract 0 0) (|c499#178| state)) #b1))
(define-fun |c499#179| ((state |c499_s|)) (_ BitVec 1) (bvand (|c499#167| state) (|c499#154| state))) 
(define-fun |c499#180| ((state |c499_s|)) (_ BitVec 1) (bvand (|c499#179| state) (|c499#97| state))) 
(define-fun |c499#181| ((state |c499_s|)) (_ BitVec 1) (bvand (|c499#180| state) (|c499#144| state))) 
(define-fun |c499#182| ((state |c499_s|)) (_ BitVec 1) (bvand (|c499#52| state) (|c499#181| state))) 
(define-fun |c499#183| ((state |c499_s|)) (_ BitVec 1) (bvxor (ite (|c499#27| state) #b1 #b0) (|c499#182| state))) 

(define-fun |c499_n N736| ((state |c499_s|)) Bool (= ((_ extract 0 0) (|c499#183| state)) #b1))
(define-fun |c499#184| ((state |c499_s|)) (_ BitVec 1) (bvand (|c499#113| state) (|c499#181| state))) 
(define-fun |c499#185| ((state |c499_s|)) (_ BitVec 1) (bvxor (ite (|c499#29| state) #b1 #b0) (|c499#184| state))) 

(define-fun |c499_n N737| ((state |c499_s|)) Bool (= ((_ extract 0 0) (|c499#185| state)) #b1))
(define-fun |c499#186| ((state |c499_s|)) (_ BitVec 1) (bvand (|c499#122| state) (|c499#181| state))) 
(define-fun |c499#187| ((state |c499_s|)) (_ BitVec 1) (bvxor (ite (|c499#30| state) #b1 #b0) (|c499#186| state))) 

(define-fun |c499_n N738| ((state |c499_s|)) Bool (= ((_ extract 0 0) (|c499#187| state)) #b1))
(define-fun |c499#188| ((state |c499_s|)) (_ BitVec 1) (bvand (|c499#131| state) (|c499#181| state))) 
(define-fun |c499#189| ((state |c499_s|)) (_ BitVec 1) (bvxor (ite (|c499#31| state) #b1 #b0) (|c499#188| state))) 

(define-fun |c499_n N739| ((state |c499_s|)) Bool (= ((_ extract 0 0) (|c499#189| state)) #b1))
(define-fun |c499#190| ((state |c499_s|)) (_ BitVec 1) (bvand (|c499#141| state) (|c499#122| state))) 
(define-fun |c499#191| ((state |c499_s|)) (_ BitVec 1) (bvand (|c499#190| state) (|c499#134| state))) 
(define-fun |c499#192| ((state |c499_s|)) (_ BitVec 1) (bvand (|c499#166| state) (|c499#81| state))) 
(define-fun |c499#193| ((state |c499_s|)) (_ BitVec 1) (bvand (|c499#192| state) (|c499#154| state))) 
(define-fun |c499#194| ((state |c499_s|)) (_ BitVec 1) (bvand (|c499#193| state) (|c499#97| state))) 
(define-fun |c499#195| ((state |c499_s|)) (_ BitVec 1) (bvand (|c499#192| state) (|c499#89| state))) 
(define-fun |c499#196| ((state |c499_s|)) (_ BitVec 1) (bvand (|c499#195| state) (|c499#98| state))) 
(define-fun |c499#197| ((state |c499_s|)) (_ BitVec 1) (bvor (|c499#194| state) (|c499#196| state))) 
(define-fun |c499#198| ((state |c499_s|)) (_ BitVec 1) (bvand (|c499#179| state) (|c499#98| state))) 
(define-fun |c499#199| ((state |c499_s|)) (_ BitVec 1) (bvor (|c499#197| state) (|c499#198| state))) 
(define-fun |c499#200| ((state |c499_s|)) (_ BitVec 1) (bvand (|c499#155| state) (|c499#98| state))) 
(define-fun |c499#201| ((state |c499_s|)) (_ BitVec 1) (bvor (|c499#199| state) (|c499#200| state))) 
(define-fun |c499#202| ((state |c499_s|)) (_ BitVec 1) (bvand (|c499#191| state) (|c499#201| state))) 
(define-fun |c499#203| ((state |c499_s|)) (_ BitVec 1) (bvand (|c499#67| state) (|c499#202| state))) 
(define-fun |c499#204| ((state |c499_s|)) (_ BitVec 1) (bvxor (ite (|c499#32| state) #b1 #b0) (|c499#203| state))) 

(define-fun |c499_n N740| ((state |c499_s|)) Bool (= ((_ extract 0 0) (|c499#204| state)) #b1))
(define-fun |c499#205| ((state |c499_s|)) (_ BitVec 1) (bvand (|c499#80| state) (|c499#202| state))) 
(define-fun |c499#206| ((state |c499_s|)) (_ BitVec 1) (bvxor (ite (|c499#33| state) #b1 #b0) (|c499#205| state))) 

(define-fun |c499_n N741| ((state |c499_s|)) Bool (= ((_ extract 0 0) (|c499#206| state)) #b1))
(define-fun |c499#207| ((state |c499_s|)) (_ BitVec 1) (bvand (|c499#89| state) (|c499#202| state))) 
(define-fun |c499#208| ((state |c499_s|)) (_ BitVec 1) (bvxor (|c499#39| state) (|c499#207| state))) 

(define-fun |c499_n N742| ((state |c499_s|)) Bool (= ((_ extract 0 0) (|c499#208| state)) #b1))
(define-fun |c499#209| ((state |c499_s|)) (_ BitVec 1) (bvand (|c499#97| state) (|c499#202| state))) 
(define-fun |c499#210| ((state |c499_s|)) (_ BitVec 1) (bvxor (|c499#40| state) (|c499#209| state))) 

(define-fun |c499_n N743| ((state |c499_s|)) Bool (= ((_ extract 0 0) (|c499#210| state)) #b1))
(define-fun |c499#211| ((state |c499_s|)) (_ BitVec 1) (bvand (|c499#142| state) (|c499#131| state))) 
(define-fun |c499#212| ((state |c499_s|)) (_ BitVec 1) (bvand (|c499#211| state) (|c499#201| state))) 
(define-fun |c499#213| ((state |c499_s|)) (_ BitVec 1) (bvand (|c499#67| state) (|c499#212| state))) 
(define-fun |c499#214| ((state |c499_s|)) (_ BitVec 1) (bvxor (|c499#43| state) (|c499#213| state))) 

(define-fun |c499_n N744| ((state |c499_s|)) Bool (= ((_ extract 0 0) (|c499#214| state)) #b1))
(define-fun |c499#215| ((state |c499_s|)) (_ BitVec 1) (bvand (|c499#80| state) (|c499#212| state))) 
(define-fun |c499#216| ((state |c499_s|)) (_ BitVec 1) (bvxor (|c499#44| state) (|c499#215| state))) 

(define-fun |c499_n N745| ((state |c499_s|)) Bool (= ((_ extract 0 0) (|c499#216| state)) #b1))
(define-fun |c499#217| ((state |c499_s|)) (_ BitVec 1) (bvand (|c499#89| state) (|c499#212| state))) 
(define-fun |c499#218| ((state |c499_s|)) (_ BitVec 1) (bvxor (|c499#46| state) (|c499#217| state))) 

(define-fun |c499_n N746| ((state |c499_s|)) Bool (= ((_ extract 0 0) (|c499#218| state)) #b1))
(define-fun |c499#219| ((state |c499_s|)) (_ BitVec 1) (bvand (|c499#97| state) (|c499#212| state))) 
(define-fun |c499#220| ((state |c499_s|)) (_ BitVec 1) (bvxor (|c499#47| state) (|c499#219| state))) 

(define-fun |c499_n N747| ((state |c499_s|)) Bool (= ((_ extract 0 0) (|c499#220| state)) #b1))
(define-fun |c499#221| ((state |c499_s|)) (_ BitVec 1) (bvand (|c499#137| state) (|c499#122| state))) 
(define-fun |c499#222| ((state |c499_s|)) (_ BitVec 1) (bvand (|c499#221| state) (|c499#134| state))) 
(define-fun |c499#223| ((state |c499_s|)) (_ BitVec 1) (bvand (|c499#222| state) (|c499#201| state))) 
(define-fun |c499#224| ((state |c499_s|)) (_ BitVec 1) (bvand (|c499#67| state) (|c499#223| state))) 
(define-fun |c499#225| ((state |c499_s|)) (_ BitVec 1) (bvxor (|c499#54| state) (|c499#224| state))) 

(define-fun |c499_n N748| ((state |c499_s|)) Bool (= ((_ extract 0 0) (|c499#225| state)) #b1))
(define-fun |c499#226| ((state |c499_s|)) (_ BitVec 1) (bvand (|c499#80| state) (|c499#223| state))) 
(define-fun |c499#227| ((state |c499_s|)) (_ BitVec 1) (bvxor (ite (|c499#2| state) #b1 #b0) (|c499#226| state))) 

(define-fun |c499_n N749| ((state |c499_s|)) Bool (= ((_ extract 0 0) (|c499#227| state)) #b1))
(define-fun |c499#228| ((state |c499_s|)) (_ BitVec 1) (bvand (|c499#89| state) (|c499#223| state))) 
(define-fun |c499#229| ((state |c499_s|)) (_ BitVec 1) (bvxor (ite (|c499#3| state) #b1 #b0) (|c499#228| state))) 

(define-fun |c499_n N750| ((state |c499_s|)) Bool (= ((_ extract 0 0) (|c499#229| state)) #b1))
(define-fun |c499#230| ((state |c499_s|)) (_ BitVec 1) (bvand (|c499#97| state) (|c499#223| state))) 
(define-fun |c499#231| ((state |c499_s|)) (_ BitVec 1) (bvxor (ite (|c499#4| state) #b1 #b0) (|c499#230| state))) 

(define-fun |c499_n N751| ((state |c499_s|)) Bool (= ((_ extract 0 0) (|c499#231| state)) #b1))
(define-fun |c499#232| ((state |c499_s|)) (_ BitVec 1) (bvand (|c499#138| state) (|c499#131| state))) 
(define-fun |c499#233| ((state |c499_s|)) (_ BitVec 1) (bvand (|c499#232| state) (|c499#201| state))) 
(define-fun |c499#234| ((state |c499_s|)) (_ BitVec 1) (bvand (|c499#67| state) (|c499#233| state))) 
(define-fun |c499#235| ((state |c499_s|)) (_ BitVec 1) (bvxor (ite (|c499#5| state) #b1 #b0) (|c499#234| state))) 

(define-fun |c499_n N752| ((state |c499_s|)) Bool (= ((_ extract 0 0) (|c499#235| state)) #b1))
(define-fun |c499#236| ((state |c499_s|)) (_ BitVec 1) (bvand (|c499#80| state) (|c499#233| state))) 
(define-fun |c499#237| ((state |c499_s|)) (_ BitVec 1) (bvxor (ite (|c499#6| state) #b1 #b0) (|c499#236| state))) 

(define-fun |c499_n N753| ((state |c499_s|)) Bool (= ((_ extract 0 0) (|c499#237| state)) #b1))
(define-fun |c499#238| ((state |c499_s|)) (_ BitVec 1) (bvand (|c499#89| state) (|c499#233| state))) 
(define-fun |c499#239| ((state |c499_s|)) (_ BitVec 1) (bvxor (ite (|c499#7| state) #b1 #b0) (|c499#238| state))) 

(define-fun |c499_n N754| ((state |c499_s|)) Bool (= ((_ extract 0 0) (|c499#239| state)) #b1))
(define-fun |c499#240| ((state |c499_s|)) (_ BitVec 1) (bvand (|c499#97| state) (|c499#233| state))) 
(define-fun |c499#241| ((state |c499_s|)) (_ BitVec 1) (bvxor (ite (|c499#8| state) #b1 #b0) (|c499#240| state))) 

(define-fun |c499_n N755| ((state |c499_s|)) Bool (= ((_ extract 0 0) (|c499#241| state)) #b1))


(define-fun |c499_n N77| ((state |c499_s|)) Bool (= ((_ extract 0 0) (|c499#40| state)) #b1))


(define-fun |c499_n N81| ((state |c499_s|)) Bool (= ((_ extract 0 0) (|c499#43| state)) #b1))


(define-fun |c499_n N85| ((state |c499_s|)) Bool (= ((_ extract 0 0) (|c499#44| state)) #b1))


(define-fun |c499_n N89| ((state |c499_s|)) Bool (= ((_ extract 0 0) (|c499#46| state)) #b1))


(define-fun |c499_n N9| ((state |c499_s|)) Bool (= ((_ extract 0 0) (|c499#59| state)) #b1))


(define-fun |c499_n N93| ((state |c499_s|)) Bool (= ((_ extract 0 0) (|c499#47| state)) #b1))


(define-fun |c499_n N97| ((state |c499_s|)) Bool (= ((_ extract 0 0) (|c499#54| state)) #b1))
(define-fun |c499_a| ((state |c499_s|)) Bool true)
(define-fun |c499_u| ((state |c499_s|)) Bool true)
(define-fun |c499_i| ((state |c499_s|)) Bool true)
(define-fun |c499_h| ((state |c499_s|)) Bool true)
(define-fun |c499_t| ((state |c499_s|) (next_state |c499_s|)) Bool true) 


